(set-logic HORN)
(declare-rel inv1 ( (Array Int Int) Int Int))(declare-rel inv2 ( (Array Int Int) Int Int Int))(declare-rel fail ( ))(forall ((a (Array Int Int)) (N Int)) (! (inv1 a 0 N) ))(forall ((a (Array Int Int)) (i Int) (N Int))
  (! (=> (and (inv1 a i N) (< i N)) (inv2 a i 0 N)) ))(forall ((a (Array Int Int))
         (j Int)
         (a1 (Array Int Int))
         (i Int)
         (j1 Int)
         (N Int))
  (! (let ((a!1 (ite (= i 0) (store a j 0) (store a j (* 2 (select a j))))))
       (=> (and (inv2 a i j N) (< j N) (= a1 a!1) (= j1 (+ j 1)))
           (inv2 a1 i j1 N)))
     ))(forall ((j Int) (i Int) (a (Array Int Int)) (i1 Int) (N Int))
  (! (=> (and (inv2 a i j N) (not (< j N)) (= i1 (+ i 1))) (inv1 a i1 N))
     ))(forall ((i Int) (N Int) (a (Array Int Int)) (i1 Int))
  (! (let ((a!1 (and (inv1 a i N)
                     (not (< i N))
                     (<= 0 i1)
                     (< i1 N)
                     (not (>= (select a i1) 0)))))
       (=> a!1 fail))
     ))(assert (not fail))
(check-sat)